
  32    4
  10   10   10   10

   0   0   0   0   0  15 2 4 6 7 8 11 12 24 25 26 27 28 29 30 31 
   9  10  10  10  10   3 23 18 3 
   4  10  10  10  10   5 20 19 15 14 5 
   8  10  10  10  10   3 22 17 16 
  10  10  10  10  10   1 9 
   6  10  10  10  10   2 18 17 
   2  10  10  10  10   2 15 14 
   5  10  10  10  10   2 14 13 
   9  10  10  10  10   1 10 
  10  10  10  10  10   1 13 
  10  10  10  10  10   1 21 
   4  10  10  10  10   1 16 
   8  10  10  10  10   1 32
   8  10  10  10  10   1 32
   2  10  10  10  10   1 32
   9  10  10  10  10   1 32
   4  10  10  10  10   1 32
   3  10  10  10  10   1 32
   3  10  10  10  10   1 32
   9  10  10  10  10   1 32
  10  10  10  10  10   1 32
   8  10  10  10  10   1 32
   9  10  10  10  10   1 32
   1  10  10  10  10   1 32
   1  10  10  10  10   1 32
   1  10  10  10  10   1 32
   1  10  10  10  10   1 32
   9  10  10  10  10   1 32
   5  10  10  10  10   1 32
   3  10  10  10  10   1 32
   8  10  10  10  10   1 32
   0   0   0   0   0   0 
